c This Formular was created for testing purposes
c
c    horn? no
c    forced? no
c    mixed sat? no
c    clause length = 3
c
p cnf
1	11	20
2	12	4
3	13	6
4	14	-13
5	15	-3
6	16	-10
7	17	-18
8	18	7
9	19	11
10	20	2
%
0
